
Gurobi 10.0.3 (linux64, gurobi_cl) logging started Thu Nov  9 12:14:59 2023

Set parameter Username
Set parameter TimeLimit to value 3600
Set parameter LogFile to value "RCPSP_1363.log"
Set parameter Threads to value 32
Academic license - for non-commercial use only - expires 2024-11-06
Using license file /home/jrivera6/gurobi-licenses/v1003/compute-0-36/gurobi.lic

Gurobi Optimizer version 10.0.3 build v10.0.3rc0 (linux64)
Copyright (c) 2023, Gurobi Optimization, LLC

Read MPS format model from file RCPSP_1363.mps
Reading time = 0.09 seconds
RCPSP_1363: 42975 rows, 17020 columns, 151080 nonzeros

CPU model: Intel(R) Xeon(R) Gold 6130 CPU @ 2.10GHz, instruction set [SSE2|AVX|AVX2|AVX512]
Thread count: 32 physical cores, 32 logical processors, using up to 32 threads

Optimize a model with 42975 rows, 17020 columns and 151080 nonzeros
Model fingerprint: 0xf2e2cab6
Variable types: 92 continuous, 16928 integer (16928 binary)
Coefficient statistics:
  Matrix range     [1e+00, 5e+02]
  Objective range  [1e+00, 1e+00]
  Bounds range     [1e+00, 1e+00]
  RHS range        [1e+00, 5e+02]
Presolve removed 10679 rows and 2768 columns (presolve time = 5s) ...
Presolve removed 16778 rows and 5198 columns
Presolve time: 9.59s
Presolved: 26197 rows, 11822 columns, 94532 nonzeros
Variable types: 91 continuous, 11731 integer (11731 binary)

Root simplex log...

Iteration    Objective       Primal Inf.    Dual Inf.      Time
       0    1.0600000e+02   8.630406e+04   0.000000e+00     10s
    3638    1.0600000e+02   0.000000e+00   0.000000e+00     10s

Root relaxation: objective 1.060000e+02, 3638 iterations, 0.17 seconds (0.05 work units)

    Nodes    |    Current Node    |     Objective Bounds      |     Work
 Expl Unexpl |  Obj  Depth IntInf | Incumbent    BestBd   Gap | It/Node Time

     0     0  106.00000    0  376          -  106.00000      -     -   12s
     0     0  106.00000    0  374          -  106.00000      -     -   12s
     0     0  106.00480    0  936          -  106.00480      -     -   25s
     0     0  106.00480    0  879          -  106.00480      -     -   26s
     0     0  106.00480    0  879          -  106.00480      -     -   26s
     0     0  106.00480    0  877          -  106.00480      -     -   26s
     0     0  106.00480    0  875          -  106.00480      -     -   28s
     0     0  106.00480    0  871          -  106.00480      -     -   28s
     0     0  107.00060    0  969          -  107.00060      -     -   34s
     0     0  107.00060    0  943          -  107.00060      -     -   35s
     0     0  107.00060    0  888          -  107.00060      -     -   36s
     0     0  107.00060    0  889          -  107.00060      -     -   36s
     0     0  107.00060    0  979          -  107.00060      -     -   48s
     0     0  107.00060    0  967          -  107.00060      -     -   48s
     0     0  107.47026    0  941          -  107.47026      -     -   52s
     0     0  107.47026    0  860          -  107.47026      -     -   52s
     0     0  107.47026    0  858          -  107.47026      -     -   52s
     0     0  108.00000    0  957          -  108.00000      -     -   54s
     0     0  108.00000    0  945          -  108.00000      -     -   54s
     0     0  108.00000    0  944          -  108.00000      -     -   54s
     0     0  108.00000    0  888          -  108.00000      -     -   56s
     0     0  108.00000    0  821          -  108.00000      -     -   57s
     0     0  108.00000    0 1004          -  108.00000      -     -   63s
     0     0  108.00000    0  979          -  108.00000      -     -   65s
     0     0  108.00000    0  998          -  108.00000      -     -   67s
     0     0  108.00000    0  888          -  108.00000      -     -   67s
     0     0  108.00000    0 1019          -  108.00000      -     -   70s
     0     0  108.00000    0  456          -  108.00000      -     -  114s
     0     0  108.00000    0  454          -  108.00000      -     -  114s
     0     0  108.00000    0  891          -  108.00000      -     -  121s
     0     0  108.00000    0  888          -  108.00000      -     -  121s
     0     0  108.00000    0  938          -  108.00000      -     -  123s
     0     0  108.00000    0  932          -  108.00000      -     -  123s
     0     0  108.00118    0 1042          -  108.00118      -     -  129s
     0     0  108.00118    0 1037          -  108.00118      -     -  130s
     0     0  108.09316    0 1083          -  108.09316      -     -  134s
     0     0  108.09316    0  962          -  108.09316      -     -  135s
     0     0  108.09316    0  960          -  108.09316      -     -  135s
     0     0  108.09316    0  947          -  108.09316      -     -  140s
     0     0  108.09316    0  917          -  108.09316      -     -  140s
     0     0  108.09316    0  915          -  108.09316      -     -  140s
     0     0  108.62052    0  944          -  108.62052      -     -  149s
     0     0  108.62052    0  941          -  108.62052      -     -  149s
     0     0  108.66024    0  939          -  108.66024      -     -  156s
     0     0  108.66107    0  943          -  108.66107      -     -  159s
     0     0  108.66107    0  986          -  108.66107      -     -  161s
     0     0  108.66107    0  984          -  108.66107      -     -  161s
     0     0  108.75000    0 1013          -  108.75000      -     -  165s
     0     0  108.75000    0 1008          -  108.75000      -     -  168s
     0     0  108.75000    0  956          -  108.75000      -     -  169s
     0     0  108.75000    0  955          -  108.75000      -     -  169s
     0     0  108.75000    0 1046          -  108.75000      -     -  189s
     0     0  108.75000    0  956          -  108.75000      -     -  190s
     0     0  108.75000    0 1047          -  108.75000      -     -  197s
     0     0  108.75000    0 1085          -  108.75000      -     -  198s
     0     0  108.75000    0  442          -  108.75000      -     -  213s
     0     0  108.75000    0  614          -  108.75000      -     -  253s
     0     0  108.75000    0  537          -  108.75000      -     -  257s
     0     0  108.75000    0  548          -  108.75000      -     -  257s
     0     0  108.75000    0  825          -  108.75000      -     -  261s
     0     0  108.75000    0  772          -  108.75000      -     -  261s
     0     0  108.75000    0  570          -  108.75000      -     -  271s
     0     0  108.75000    0  556          -  108.75000      -     -  271s
     0     0  108.75000    0  819          -  108.75000      -     -  273s
     0     0  108.75000    0  815          -  108.75000      -     -  273s
     0     0  108.75000    0  650          -  108.75000      -     -  281s
     0     0  108.75000    0  548          -  108.75000      -     -  287s
     0     2  108.75000    0  293          -  108.75000      -     -  308s
     3     8  109.00000    2  288          -  109.00000      -  1019  310s
     7    16  109.00000    3  872          -  109.00000      -   792  348s
    15    18  109.00000    4 1024          -  109.00000      -  1535  382s
    31    18  109.00000    5  925          -  109.00000      -  1437  396s
    49    20  109.00000    6  923          -  109.00000      -  1182  402s
    67    40  109.00000    7 1012          -  109.00000      -   947  474s
    87    60  109.00000    8 1062          -  109.00000      -  1081  556s
   119    86  109.00000    9 1056          -  109.00000      -  1194  615s
   151    98  109.00000    9 1039          -  109.00000      -  1204  739s
   183   135  109.00000   10 1133          -  109.00000      -  1147  750s
   220   177  109.00000   11 1051          -  109.00000      -  1080  756s
   264   221  109.00000   12 1037          -  109.00000      -   951  763s
   309   269  109.00000   13 1014          -  109.00000      -   884  771s
   357   327  109.00865   14 1034          -  109.00000      -   805  777s
   416   383  109.01039   15 1024          -  109.00000      -   717  783s
   473   451  109.02548   18 1045          -  109.00000      -   661  792s
   541   572  109.02646   20 1043          -  109.00000      -   601  808s
   667   774  111.00000   22  950          -  109.00000      -   535  838s
   874   933  109.93619   23  931          -  109.00000      -   444  849s
  1042  1107  112.00000   25  816          -  109.00000      -   406  867s
  1234  1274  112.00000   34  813          -  109.00000      -   383  880s
  1442  1460  113.00000   39  845          -  109.00000      -   361  913s
  1651  1665  117.00000   41  722          -  109.00000      -   345  926s
  1883  1905  115.00000   43  725          -  109.00000      -   327  947s
  2236  2128 infeasible   53               -  109.00000      -   300  964s
  2518  2271  116.00000   55  769          -  109.00000      -   287 1027s
  2767  2534  122.51724   56  850          -  109.00000      -   280 1079s
  3117  2535  117.00000   48 1019          -  109.00000      -   266 1147s
  3119  2536  125.15238   58  277          -  109.00000      -   266 1165s
  3121  2538  109.16228   31  782          -  109.00000      -   266 1175s
  3122  2538  115.00000   29  867          -  109.00000      -   266 1185s
  3123  2539  109.23810   16  950          -  109.00000      -   266 1196s
  3125  2540  110.82153   12  941          -  109.00000      -   266 1205s
  3127  2542  120.00000   48  990          -  109.00000      -   266 1210s
  3128  2542  114.00000   30  617          -  109.00000      -   266 1241s
  3129  2543  126.00000  103  795          -  109.00000      -   265 1248s
  3130  2544  115.00000   39  623          -  109.00000      -   265 1263s
  3131  2544  109.00000   21  825          -  109.00000      -   265 1266s
  3132  2545  115.00000   40  618          -  109.00000      -   265 1272s
  3133  2546  115.00000   39  800          -  109.00000      -   265 1275s
  3134  2546  109.00000   10  595          -  109.00000      -   265 1285s
  3135  2547  114.00000   36  859          -  109.00000      -   265 1291s
  3136  2548  124.00000   64  676          -  109.00000      -   265 1314s
  3137  2548  114.00000   51  785          -  109.00000      -   265 1318s
  3138  2549  115.00000   44  699          -  109.00000      -   265 1333s
  3139  2550  115.00000   31  699          -  109.00000      -   265 1336s
  3140  2550  124.00000   15  699          -  109.00000      -   265 1346s
  3141  2554  109.00153   15  752          -  109.00000      -   331 1405s
  3143  2557  109.17296   16  985          -  109.00150      -   332 1450s
  3147  2564  113.50000   17  954          -  109.18089      -   334 1492s
  3155  2577  113.50000   18  953          -  109.28343      -   334 1559s
  3170  2572  113.50000   18  845          -  109.28343      -   336 1560s
  3171  2604  113.50000   19  986          -  109.28343      -   337 1615s
  3203  2625  117.00000   20  924          -  109.33263      -   348 1639s
  3235  2645  113.50000   20  998          -  109.37412      -   358 1659s
  3267  2662  115.00000   21  891          -  109.37412      -   360 1686s
  3299  2675  113.50000   21  933          -  109.37412      -   362 1713s
  3331  2695  116.00000   22  900          -  109.37412      -   362 1808s
  3363  2723  119.00000   22  801          -  109.37412      -   363 1833s
  3408  2747  116.00000   23  870          -  109.37412      -   363 1858s
  3451  2778  116.00000   24  864          -  109.37412      -   363 1881s
  3498  2801  116.00000   25  869          -  109.37412      -   361 1914s
  3550  2833  116.00000   26  848          -  109.37412      -   361 1950s
  3607  2850  116.00000   27  816          -  109.37412      -   359 2001s
  3649  2880  119.00000   27  798          -  109.37412      -   361 2059s
  3704  2901  116.00000   28  806          -  109.37412      -   360 2090s
  3757  2973  116.00000   29  791          -  109.37412      -   361 2113s
  3865  3013  116.00000   31  882          -  109.37412      -   356 2123s
  3956  2991  117.00000   32  789          -  109.37412      -   356 2172s
  4007  3084  130.00000   33  706          -  109.37412      -   356 2180s
  4134  3051  120.00000   34  688          -  109.37412      -   351 2220s
  4197  3158  117.00000   34  793          -  109.37412      -   350 2247s
  4347  3255  117.00000   37  763          -  109.37412      -   344 2274s
  4523  3207  119.00000   38  751          -  109.37412      -   335 2331s
  4595  3346  124.00000   39  795          -  109.37412      -   334 2348s
  4803  3476  124.00000   41  750          -  109.37412      -   324 2358s
  5041  3390 infeasible   42               -  109.37412      -   312 2403s
  5115  3454 infeasible   42               -  109.37412      -   312 2414s
  5257  3575  127.00000   42  724          -  109.37412      -   310 2431s
  5458  3524  135.00000   46  697          -  109.37412      -   303 2487s
  5530  3674  135.00000   47  692          -  109.37412      -   303 2516s
  5748  3630  135.00000   51  676          -  109.37412      -   296 2572s
  5823  3780  135.00000   53  678          -  109.37412      -   298 2582s
  6031  3761  140.00000   58  666          -  109.37412      -   293 2620s
  6106  4029  140.00000   59  687          -  109.37412      -   292 2632s
  6439  4212  145.00000   65  648          -  109.37412      -   282 2660s
  6806  4108  144.00000   73  647          -  109.37412      -   270 2730s
  6905  4396  144.00000   75  647          -  109.37412      -   271 2766s
  7252  4616  150.00000   82  623          -  109.37412      -   261 2829s
  7669  4500  144.00000   88  591          -  109.37412      -   251 2912s
  7756  4805  144.00000   90  626          -  109.37412      -   251 2976s
  8170  4709  144.00000  102  617          -  109.37412      -   242 3067s
  8265  5027  144.00000  103  615          -  109.37412      -   243 3133s
  8686  5184  147.00000  111  623          -  109.37412      -   235 3182s
  9035  5075  144.00000  122  641          -  109.37412      -   232 3280s
  9122  5396  144.00000  124  633          -  109.37412      -   234 3320s
  9545  5290 infeasible  134               -  109.64464      -   229 3389s
  9667  5728  109.72798   23 1053          -  109.64949      -   230 3615s

Cutting planes:
  Learned: 7
  Gomory: 56
  Cover: 114
  Implied bound: 61
  Projected implied bound: 2
  Clique: 35
  MIR: 424
  StrongCG: 19
  Flow cover: 1245
  Inf proof: 4
  Zero half: 19
  RLT: 183
  Relax-and-lift: 216

Explored 10223 nodes (2293593 simplex iterations) in 3735.09 seconds (194.11 work units)
Thread count was 32 (of 32 available processors)

Solution count 0

Time limit reached
Best objective -, best bound 1.096494900264e+02, gap -

Unable to retrieve attribute 'X'

